
  32    4
  10   10   10   10

   0   0   0   0   0   6 2 12 18 29 30 31 
   6  10  10  10  10   1 3 
   7  10  10  10  10   1 4 
   9  10  10  10  10   1 5 
   2  10  10  10  10   2 28 6 
  10  10  10  10  10   1 7 
   6  10  10  10  10   1 8 
  10  10  10  10  10   1 9 
   1  10  10  10  10   1 10 
   3  10  10  10  10   1 11 
   8  10  10  10  10   1 13 
  10  10  10  10  10   1 13 
   6  10  10  10  10   1 14 
   4  10  10  10  10   1 15 
   9  10  10  10  10   1 16 
   1  10  10  10  10   1 17 
   2  10  10  10  10   1 19 
   7  10  10  10  10   1 19 
   6  10  10  10  10   1 20 
   1  10  10  10  10   1 21 
   3  10  10  10  10   1 22 
   8  10  10  10  10   1 23 
   2  10  10  10  10   1 24 
   7  10  10  10  10   1 25 
   4  10  10  10  10   1 26 
   6  10  10  10  10   1 27 
   2  10  10  10  10   1 32
   4  10  10  10  10   1 32
   3  10  10  10  10   1 32
   5  10  10  10  10   1 32
   2  10  10  10  10   1 32
   0   0   0   0   0   0 
